(declare-const a Real)
(declare-const b Real)
(declare-const c Real)
(assert (= (+ a b c) 3))
(assert (> a 0))
(assert (> b 0))
(assert (> c 0))
(assert (not (<= (+ (* -108 (pow (+ a b c) 4)) (* (pow (+ (* 729 (pow (+ a c) 2)) (* 729 (pow (+ b c) 2)) (* 729 (pow c 2) (pow (+ a b) 2))) -1) (pow (+ (* 729 a (pow (+ b c) 2)) (* 729 b (pow (+ a c) 2)) (* 729 (pow c 2) (pow (+ a b) 2))) 2))) 0)))
(check-sat)
(get-model)
(exit)